(set-info :source  loris-7.ddns.comp.nus.edu.sg/~project/hip/) 
;Variables declarations
(declare-fun h_primed () Int)
(declare-fun h_3045 () Int)
(declare-fun n_3029 () Int)
(declare-fun n_3022 () Int)
(declare-fun an_2998 () Int)
(declare-fun cn () Int)
(declare-fun h_3019 () Int)
(declare-fun bn () Int)
(declare-fun an () Int)
(declare-fun h_3039 () Int)
(declare-fun n_3003 () Int)
(declare-fun n () Int)
(declare-fun n_3048 () Int)
(declare-fun n1_3054 () Int)
(declare-fun n2_3057 () Int)
;Relations declarations
;Axioms assertions
;Antecedent
(assert (<= 0 n_3029))
(assert (<= 0 n_3022))
(assert (= h_primed (+ 1 h_3045)))
(assert (or (and (= h_3045 n_3022) (>= n_3022 n_3029)) (and (= h_3045 n_3029) (< n_3022 n_3029))))
(assert (<= 0 an_2998))
(assert (= n_3029 an_2998))
(assert (<= 0 cn))
(assert (= n_3022 cn))
(assert (= an_2998 an))
(assert (<= cn (+ 1 bn)))
(assert (<= (+ 0 bn) (+ cn 1)))
(assert (or (and (= an bn) (>= bn cn)) (and (= an cn) (< bn cn))))
(assert (<= 0 n))
(assert (<= 0 n_3003))
(assert (= h_3039 (+ 1 h_3019)))
(assert (or (and (= h_3019 n) (>= n n_3003)) (and (= h_3019 n_3003) (< n n_3003))))
(assert (<= 0 bn))
(assert (= n_3003 bn))
(assert (<= 0 an))
(assert (= n an))
(assert (exists ((max_3065 Int)) (and (= n_3048 (+ 1 max_3065)) (or (and (= max_3065 n1_3054) (>= n1_3054 n2_3057)) (and (= max_3065 n2_3057) (< n1_3054 n2_3057))))))
(assert (= h_3039 n_3048))
(assert (or (and (= h_3039 (+ n1_3054 1)) (<= n2_3057 n1_3054)) (and (= h_3039 (+ n2_3057 1)) (< n1_3054 n2_3057))))
(assert (<= (+ 0 n2_3057) (+ n1_3054 1)))
(assert (<= n1_3054 (+ 1 n2_3057)))
(assert (= n2_3057 n_3003))
(assert (= n1_3054 n))
;Negation of Consequence
(assert (not (or (and (= n_3048 (+ n1_3054 1)) (<= n2_3057 n1_3054)) (and (= n_3048 (+ n2_3057 1)) (< n1_3054 n2_3057)))))
(check-sat)